HUN,8,6,667
5,31,0,42,4,31,2,38,1,90,3,65
4,2,1,9,3,23,5,13,0,23,2,6
0,51,5,32,1,93,2,42,3,12,4,10
5,70,3,68,2,30,1,96,4,36,0,43
2,11,3,45,0,57,4,34,1,67,5,15
2,68,0,19,5,76,3,2,1,55,4,3
5,50,2,37,4,61,3,35,0,82,1,70
0,95,4,60,2,81,5,62,1,79,3,18
